\ Model model
\ LP format - for model browsing. Use MPS format to capture full model detail.
Minimize
  6 y_(0,_1,_0) + 7 y_(0,_2,_0) + 5 y_(0,_3,_0) + 7 y_(0,_4,_0)
   + 8 y_(1,_5,_0) + 8 y_(1,_3,_0) + 0.9 y_(1,_4,_0) + 8 y_(2,_5,_0)
   + 9 y_(2,_3,_0) + 0.7 y_(2,_4,_0) + 6 y_(3,_5,_0) + 9 y_(3,_2,_0)
   + 8 y_(3,_1,_0) + 6 y_(3,_4,_0) + 9 y_(4,_5,_0) + 0.7 y_(4,_2,_0)
   + 0.9 y_(4,_1,_0) + 6 y_(4,_3,_0) + 36 u_4 + 0 t_(0,_0) + 0 w_(5,_0)
   + 0 v_(5,_0)
Subject To
 conserv2_4: y_(0,_1,_0) + y_(0,_2,_0) + y_(0,_3,_0) + y_(0,_4,_0)
   - y_(1,_5,_0) - y_(2,_5,_0) - y_(3,_5,_0) - y_(4,_5,_0) = 0
 conserv4_0: - y_(0,_1,_0) + y_(1,_5,_0) + y_(1,_3,_0) + y_(1,_4,_0)
   - y_(3,_1,_0) - y_(4,_1,_0) = 0
 conserv4_1: - y_(0,_2,_0) + y_(2,_5,_0) + y_(2,_3,_0) + y_(2,_4,_0)
   - y_(3,_2,_0) - y_(4,_2,_0) = 0
 conserv4_2: - y_(0,_3,_0) - y_(1,_3,_0) - y_(2,_3,_0) + y_(3,_5,_0)
   + y_(3,_2,_0) + y_(3,_1,_0) + y_(3,_4,_0) - y_(4,_3,_0) = 0
 conserv4_3: - y_(0,_4,_0) - y_(1,_4,_0) - y_(2,_4,_0) - y_(3,_4,_0)
   + y_(4,_5,_0) + y_(4,_2,_0) + y_(4,_1,_0) + y_(4,_3,_0) = 0
 servonce_0: y_(0,_1,_0) + y_(3,_1,_0) + y_(4,_1,_0) = 1
 servonce_1: y_(0,_2,_0) + y_(3,_2,_0) + y_(4,_2,_0) = 1
 servonce_2: y_(0,_3,_0) + y_(1,_3,_0) + y_(2,_3,_0) + y_(4,_3,_0) = 1
 truck_once_0: y_(0,_1,_0) + y_(0,_2,_0) + y_(0,_3,_0) + y_(0,_4,_0) <= 1
 linking_0: y_(0,_1,_0) <= 1
 linking_1: y_(0,_2,_0) <= 1
 linking_2: y_(0,_3,_0) <= 1
 linking_3: y_(0,_4,_0) <= 1
 linking_4: y_(1,_5,_0) <= 1
 linking_5: y_(1,_3,_0) <= 1
 linking_6: y_(1,_4,_0) <= 1
 linking_7: y_(2,_5,_0) <= 1
 linking_8: y_(2,_3,_0) <= 1
 linking_9: y_(2,_4,_0) <= 1
 linking_10: y_(3,_5,_0) <= 1
 linking_11: y_(3,_2,_0) <= 1
 linking_12: y_(3,_1,_0) <= 1
 linking_13: y_(3,_4,_0) <= 1
 linking_14: y_(4,_5,_0) <= 1
 linking_15: y_(4,_2,_0) <= 1
 linking_16: y_(4,_1,_0) <= 1
 linking_17: y_(4,_3,_0) <= 1
 sync_0: y_(0,_4,_0) + y_(1,_4,_0) + y_(2,_4,_0) + y_(3,_4,_0) - 99999 u_4
   <= 0
 drone_endu1_0: t_(1,_0) <= 15
 drone_endu1_1: t_(2,_0) <= 15
 drone_endu1_2: t_(3,_0) <= 15
 drone_endu1_3: t_(4,_0) <= 15
 drone_endu1_4: t_(5,_0) <= 15
 drone_endu2_5: - 99999 y_(1,_5,_0) - t_(1,_0) + t_(5,_0) >= -99991
 drone_endu2_6: - 99999 y_(1,_3,_0) - t_(1,_0) + t_(3,_0) >= -99991
 drone_endu2_7: - 99999 y_(1,_4,_0) - t_(1,_0) + t_(4,_0) >= -99998.1
 drone_endu2_8: - 99999 y_(2,_5,_0) - t_(2,_0) + t_(5,_0) >= -99991
 drone_endu2_9: - 99999 y_(2,_3,_0) - t_(2,_0) + t_(3,_0) >= -99990
 drone_endu2_10: - 99999 y_(2,_4,_0) - t_(2,_0) + t_(4,_0) >= -99998.3
 drone_endu2_11: - 99999 y_(3,_5,_0) - t_(3,_0) + t_(5,_0) >= -99993
 drone_endu2_12: - 99999 y_(3,_2,_0) + t_(2,_0) - t_(3,_0) >= -99990
 drone_endu2_13: - 99999 y_(3,_1,_0) + t_(1,_0) - t_(3,_0) >= -99991
 drone_endu2_14: - 99999 y_(3,_4,_0) - t_(3,_0) + t_(4,_0) >= -99993
 drone_endu3_15: - 99999 y_(4,_5,_0) + t_(5,_0) >= -99990
 drone_endu3_16: - 99999 y_(4,_2,_0) + t_(2,_0) >= -99998.3
 drone_endu3_17: - 99999 y_(4,_1,_0) + t_(1,_0) >= -99998.1
 drone_endu3_18: - 99999 y_(4,_3,_0) + t_(3,_0) >= -99993
 drone_endu3_19: - 99999 y_(0,_1,_0) + t_(1,_0) >= -99993
 drone_endu3_20: - 99999 y_(0,_2,_0) + t_(2,_0) >= -99992
 drone_endu3_21: - 99999 y_(0,_3,_0) + t_(3,_0) >= -99994
 drone_endu3_22: - 99999 y_(0,_4,_0) + t_(4,_0) >= -99992
 drone_load1_0: w_(1,_0) <= 50
 drone_load1_1: w_(2,_0) <= 50
 drone_load1_2: w_(3,_0) <= 50
 drone_load2_3: - 99999 y_(0,_1,_0) - w_(0,_0) + w_(1,_0)
   >= -99996.7520108256
 drone_load2_4: - 99999 y_(3,_1,_0) + w_(1,_0) - w_(3,_0)
   >= -99996.7520108256
 drone_load2_5: - 99999 y_(4,_1,_0) + w_(1,_0) - w_(4,_0)
   >= -99996.7520108256
 drone_load2_6: - 99999 y_(0,_2,_0) - w_(0,_0) + w_(2,_0)
   >= -99996.47297422888
 drone_load2_7: - 99999 y_(3,_2,_0) + w_(2,_0) - w_(3,_0)
   >= -99996.47297422888
 drone_load2_8: - 99999 y_(4,_2,_0) + w_(2,_0) - w_(4,_0)
   >= -99996.47297422888
 drone_load2_9: - 99999 y_(0,_3,_0) - w_(0,_0) + w_(3,_0)
   >= -99995.62256378353
 drone_load2_10: - 99999 y_(2,_3,_0) - w_(2,_0) + w_(3,_0)
   >= -99995.62256378353
 drone_load2_11: - 99999 y_(1,_3,_0) - w_(1,_0) + w_(3,_0)
   >= -99995.62256378353
 drone_load2_12: - 99999 y_(4,_3,_0) + w_(3,_0) - w_(4,_0)
   >= -99995.62256378353
 drone_load2_13: - 99999 y_(0,_4,_0) - w_(0,_0) + w_(4,_0)
   >= -99998.99000000001
 drone_load2_14: - 99999 y_(2,_4,_0) - w_(2,_0) + w_(4,_0)
   >= -99998.99000000001
 drone_load2_15: - 99999 y_(1,_4,_0) - w_(1,_0) + w_(4,_0)
   >= -99998.99000000001
 drone_load2_16: - 99999 y_(3,_4,_0) - w_(3,_0) + w_(4,_0)
   >= -99998.99000000001
 drone_load3_17: v_(1,_0) <= 10
 drone_load3_18: v_(2,_0) <= 10
 drone_load3_19: v_(3,_0) <= 10
 drone_load4_20: - 99999 y_(0,_1,_0) - v_(0,_0) + v_(1,_0)
   >= -99997.91882201025
 drone_load4_21: - 99999 y_(3,_1,_0) + v_(1,_0) - v_(3,_0)
   >= -99997.91882201025
 drone_load4_22: - 99999 y_(4,_1,_0) + v_(1,_0) - v_(4,_0)
   >= -99997.91882201025
 drone_load4_23: - 99999 y_(0,_2,_0) - v_(0,_0) + v_(2,_0)
   >= -99997.30416514189
 drone_load4_24: - 99999 y_(3,_2,_0) + v_(2,_0) - v_(3,_0)
   >= -99997.30416514189
 drone_load4_25: - 99999 y_(4,_2,_0) + v_(2,_0) - v_(4,_0)
   >= -99997.30416514189
 drone_load4_26: - 99999 y_(0,_3,_0) - v_(0,_0) + v_(3,_0)
   >= -99997.91439156581
 drone_load4_27: - 99999 y_(2,_3,_0) - v_(2,_0) + v_(3,_0)
   >= -99997.91439156581
 drone_load4_28: - 99999 y_(1,_3,_0) - v_(1,_0) + v_(3,_0)
   >= -99997.91439156581
 drone_load4_29: - 99999 y_(4,_3,_0) + v_(3,_0) - v_(4,_0)
   >= -99997.91439156581
 drone_load4_30: - 99999 y_(0,_4,_0) - v_(0,_0) + v_(4,_0)
   >= -99998.99000000001
 drone_load4_31: - 99999 y_(2,_4,_0) - v_(2,_0) + v_(4,_0)
   >= -99998.99000000001
 drone_load4_32: - 99999 y_(1,_4,_0) - v_(1,_0) + v_(4,_0)
   >= -99998.99000000001
 drone_load4_33: - 99999 y_(3,_4,_0) - v_(3,_0) + v_(4,_0)
   >= -99998.99000000001
 sync1_0: - 99999 y_(1,_5,_0) - ad_(1,_0) + ad_(5,_0) >= -99991
 sync1_1: - 99999 y_(1,_3,_0) - ad_(1,_0) + ad_(3,_0) >= -99991
 sync1_2: - 99999 y_(1,_4,_0) - ad_(1,_0) + ad_(4,_0) >= -99998.1
 sync1_3: - 99999 y_(2,_5,_0) - ad_(2,_0) + ad_(5,_0) >= -99991
 sync1_4: - 99999 y_(2,_3,_0) - ad_(2,_0) + ad_(3,_0) >= -99990
 sync1_5: - 99999 y_(2,_4,_0) - ad_(2,_0) + ad_(4,_0) >= -99998.3
 sync1_6: - 99999 y_(3,_5,_0) - ad_(3,_0) + ad_(5,_0) >= -99993
 sync1_7: - 99999 y_(3,_2,_0) + ad_(2,_0) - ad_(3,_0) >= -99990
 sync1_8: - 99999 y_(3,_1,_0) + ad_(1,_0) - ad_(3,_0) >= -99991
 sync1_9: - 99999 y_(3,_4,_0) - ad_(3,_0) + ad_(4,_0) >= -99993
 sync1_10: - 99999 y_(4,_5,_0) - ad_(4,_0) + ad_(5,_0) >= -99990
 sync1_11: - 99999 y_(4,_2,_0) + ad_(2,_0) - ad_(4,_0) >= -99998.3
 sync1_12: - 99999 y_(4,_1,_0) + ad_(1,_0) - ad_(4,_0) >= -99998.1
 sync1_13: - 99999 y_(4,_3,_0) + ad_(3,_0) - ad_(4,_0) >= -99993
 sync1_14: - 99999 y_(0,_1,_0) - ad_(0,_0) + ad_(1,_0) >= -99993
 sync1_15: - 99999 y_(0,_2,_0) - ad_(0,_0) + ad_(2,_0) >= -99992
 sync1_16: - 99999 y_(0,_3,_0) - ad_(0,_0) + ad_(3,_0) >= -99994
 sync1_17: - 99999 y_(0,_4,_0) - ad_(0,_0) + ad_(4,_0) >= -99992
Bounds
Binaries
 y_(0,_1,_0) y_(0,_2,_0) y_(0,_3,_0) y_(0,_4,_0) y_(1,_5,_0) y_(1,_3,_0)
 y_(1,_4,_0) y_(2,_5,_0) y_(2,_3,_0) y_(2,_4,_0) y_(3,_5,_0) y_(3,_2,_0)
 y_(3,_1,_0) y_(3,_4,_0) y_(4,_5,_0) y_(4,_2,_0) y_(4,_1,_0) y_(4,_3,_0)
 u_4
End
